!r2SCANh def2-TZVP d3 TightSCF SlowConv RIJCOSX defgrid2

%pal
nprocs 16
end

%scf
MaxIter 1500
end

%maxcore 3500

 

* xyz -1 1
  Pd         -0.76429632434366      1.66567338624455      0.04942316659147
  O          -0.54716947060571      1.54148030597348     -2.01800908936646
  O           1.31684830365668      0.27788761095692     -2.16761017598424
  C           0.30327267879229      0.87949634801309     -2.64026406041844
  C           0.15587637409194      0.79195283629985     -4.14221931204929
  H          -0.88757308175927      0.97987023385556     -4.43465601896417
  H           0.79801835125327      1.56418980607428     -4.60108244289126
  H           0.49542303517620     -0.19031726136099     -4.50541329526831
  O          -0.24162300588823      3.59580496372204      0.02806810020705
  C          -1.02605977135007      4.50311960050509      0.51202065159336
  O          -2.18110530106810      4.37435216722370      0.87314845202799
  C          -0.32035413571976      5.85328354289268      0.63549004276493
  H           0.44641785813078      5.98322522940656     -0.14509445801633
  H           0.18146923538494      5.89834915831122      1.61963618313334
  H          -1.05996937610071      6.66860983464416      0.59244460985664
  O           2.89534540153053      2.39269286838153     -0.39875630620095
  Pd          1.90253368891186      0.59026168542819     -0.25787762194958
  O           2.65874232134959      1.38999178270393      1.51308160718110
  C           2.94048016425399      2.44264308726700      0.86877525163275
  H           3.93676106684813      4.33585097127999      0.99671118146681
  H           2.25413846696008      4.27292890005140      1.60112882854366
  C           3.21631664066827      3.73002054551180      1.56748754379788
  H           3.56641384709940      3.55076542115835      2.59482084946439
  O           1.01535205414665     -1.13931495313927      0.28155375233752
  C          -0.24702094981116     -1.25881504499723      0.31103467348182
  O          -1.10132354579148     -0.37853953809943      0.09410958807519
  C          -0.76837951910972     -2.62980202288372      0.67213696199915
  H          -1.59602847132784     -2.89677407695987     -0.00382463307110
  H           0.02859546537939     -3.38647412086625      0.63300281659691
  H          -1.18317161588818     -2.57931861827854      1.69357055355841
  O          -0.95250421444721      1.82521092761180      2.01668194242510
  C          -2.13706377388344      1.64913375527429      2.52125006452552
  O          -3.09790697559232      1.14053095910839      1.97811346216306
  C          -2.22431845024762      2.20938688261431      3.93433466189165
  H          -2.33958066142918      3.30410496113110      3.84382153129074
  H          -3.10226346404672      1.79471056398513      4.45411656901479
  H          -1.30218479922360      2.01114823595462      4.50490055855883
*
