!PBE0 def2-SV(p) opt d3 TightSCF SlowConv RIJCOSX defgrid2

%pal
nprocs 16
end

%scf
MaxIter 1500
end

%maxcore 3500

 

* xyz 0 1
46      -0.726746000     -1.739728000     -0.001766000
46      -1.143188000      1.497963000     -0.003685000
46       1.871679000      0.239596000      0.004738000
8        0.472973000     -2.472078000      1.465927000
8        0.481886000     -2.476417000     -1.459979000
8       -2.101809000     -1.402634000      1.455494000
8       -2.091344000     -1.396577000     -1.468359000
8       -2.360395000      0.832011000     -1.488643000
8       -0.143513000      2.527236000     -1.444928000
8       -2.411671000      0.820245000      1.433076000
8       -0.188041000      2.501698000      1.482989000
8        1.897813000      1.672253000      1.448979000
8        2.248882000     -1.098587000      1.486870000
8        2.281204000     -1.134250000     -1.435379000
8        1.914308000      1.630598000     -1.476541000
6       -2.600113000     -0.331130000     -1.894925000
6       -2.638838000     -0.340583000      1.853740000
6        1.588091000     -2.085364000      1.893697000
6        1.614754000     -2.110860000     -1.857815000
6        1.033211000      2.432100000     -1.872330000
6        1.001660000      2.438780000      1.879117000
6       -3.580119000     -0.465891000     -3.031658000
1       -4.186037000      0.430490000     -3.122110000
1       -3.010210000     -0.606044000     -3.951328000
1       -4.201962000     -1.345034000     -2.882170000
6        1.410977000      3.358539000     -2.998750000
1        0.982713000      4.343085000     -2.826544000
1        2.490208000      3.414609000     -3.103218000
1        0.982048000      2.959659000     -3.919030000
6        2.229661000     -2.905515000     -2.980453000
1        2.023309000     -2.379147000     -3.913591000
1        3.307615000     -2.958756000     -2.851621000
1        1.791273000     -3.897690000     -3.031285000
6        2.178784000     -2.875689000      3.032209000
1        1.960300000     -3.932819000      2.904414000
1        3.248489000     -2.702476000      3.101604000
1        1.703980000     -2.538900000      3.955107000
6       -3.639610000     -0.462925000      2.973408000
1       -4.030650000     -1.474440000      3.027633000
1       -3.124937000     -0.231640000      3.907263000
1       -4.439497000      0.260619000      2.838780000
6        1.392581000      3.356981000      3.007912000
1        1.405534000      2.771244000      3.928116000
1        2.394782000      3.743762000      2.839892000
1        0.674134000      4.164612000      3.109918000
*
