!r2SCANh def2-TZVP d3 TightSCF SlowConv RIJCOSX defgrid2

%pal
nprocs 4
end

%scf
MaxIter 1500
end

%maxcore 3500

 

* xyz 0 3
  O           0.00000000000000      0.00000000000000      1.33411451460176
  O           0.00000000000000      0.00000000000000      0.14588548539824
*
