!PBE0 def2-SV(p) opt d3 TightSCF SlowConv RIJCOSX defgrid2

%pal
nprocs 4
end

%scf
MaxIter 1500
end

%maxcore 3500

 

* xyz -1 1
8        0.000000000      0.000000000      0.000000000
6        0.888991609     -0.768352222      0.441589541
8        2.101469440     -0.781209690      0.116018149
6        0.456002403     -1.757280323      1.492604295
1        0.372539619     -1.224538890      2.440893041
1       -0.523717382     -2.157279995      1.242831373
1        1.188349517     -2.552397924      1.594067848
*
