!r2SCANh def2-TZVP d3 TightSCF SlowConv RIJCOSX defgrid2

%pal
nprocs 16
end

%scf
MaxIter 1500
end

%maxcore 3500

 

* xyz 0 1
  Pd         -0.70729732359429     -1.69471520698101     -0.00411741820118
  Pd         -1.11683962042653      1.46234841125249     -0.01199162650670
  Pd          1.82153224613321      0.23638840943721      0.01149599704147
  O           0.65717020631612     -2.54430691430186      1.22342692467684
  O           0.30208044667745     -2.27040351328351     -1.65079825387713
  O          -1.82659447994299     -1.38351962474004      1.64325741771439
  O          -2.27157849267903     -1.31796320025989     -1.22974419824762
  O          -2.10146057413708      0.88012719115423     -1.67106773781384
  O           0.00410206993513      2.62967709997367     -1.22530713419033
  O          -2.54701322417182      0.69898345219958      1.19649257183493
  O          -0.30635482903907      2.27184095767005      1.64687421948762
  O           1.86249152561263      1.85151702320007      1.22806540163286
  O           2.09794236418462     -0.87676297014425      1.66881788581427
  O           2.28691360022264     -1.31562606175175     -1.19938062891759
  O           1.83064850766278      1.38655863591844     -1.64342664875516
  C          -2.54947741577062     -0.27692201146875     -1.87616601959935
  C          -2.55728302600413     -0.37939237868914      1.84138099270396
  C           1.59116634792032     -2.00967203446952      1.87198392078046
  C           1.53002353585967     -2.08221996642852     -1.84627640166011
  C           1.05385476876182      2.35201448781485     -1.85757755945378
  C           0.92610165556911      2.40001095882297      1.86150099178292
  C          -3.50190662573245     -0.44465889520679     -3.02919546851225
  H          -3.89516668402246      0.52750343055755     -3.35788951575189
  H          -2.95896166644210     -0.92174980515021     -3.86340379777296
  H          -4.32164188118390     -1.11972030495782     -2.73856445661204
  C           1.39888310750764      3.26247798673059     -3.00521028946863
  H           1.21647777381569      4.30916199917301     -2.71670989400076
  H           2.44261533013324      3.12050655338611     -3.31856742013713
  H           0.72743740128005      3.02907808519091     -3.84958061083043
  C           2.16241922653299     -2.83318711430041     -2.98680361093246
  H           2.31465018512874     -2.13135172379473     -3.82498238147898
  H           3.15303791190011     -3.20490916968796     -2.68231008942760
  H           1.51957679259546     -3.66159894229901     -3.31581878271186
  C           2.13909525985761     -2.80285286274312      3.02759813974084
  H           2.19324921785900     -3.86832977489665      2.75663534263119
  H           3.12608947347902     -2.42490950306132      3.32925297511617
  H           1.43892999026856     -2.70945503981504      3.87594678327563
  C          -3.53140387701817     -0.46122903773955      2.98559055861895
  H          -3.69708206400159     -1.50555330804548      3.28538623648237
  H          -3.11310178068615      0.10061419630771      3.83878425744490
  H          -4.47985980501089      0.02077819409732      2.70312126528622
  C           1.32826969647438      3.28245440536012      3.01231179070604
  H           1.60631546728150      2.63794840594356      3.86419305408477
  H           2.21660700098280      3.87175359322641      2.73786782321844
  H           0.49951125991094      3.94017188679948      3.30968039478457
*
