!PBE0 def2-SV(p) opt d3 TightSCF SlowConv RIJCOSX defgrid2

%pal
nprocs 4
end

%scf
MaxIter 1500
end

%maxcore 3500

 

* xyz 0 1
8        0.000000000      0.000000000      0.000000000
6       -1.042391175     -0.656545625      0.240917043
8       -2.216884938     -0.345836796     -0.075767283
6       -0.855567434     -1.967150393      0.960293499
1       -0.499195398     -2.700304659      0.235369496
1       -0.097796648     -1.860360876      1.732703068
1       -1.796172353     -2.309959965      1.380511457
6        0.074275287      0.734631279     -1.236284783
1       -0.893664171      0.993852722     -1.664429056
6        0.970601530      1.246060022     -2.088475436
1        2.042625257      1.157530897     -1.940314547
1        0.651405687      1.779306205     -2.977679677
*
