!PBE0 def2-SV(p) opt d3 TightSCF SlowConv RIJCOSX defgrid2

%pal
nprocs 16
end

%scf
MaxIter 1500
end

%maxcore 3500

 

* xyz -1 1
46      -0.978065576      1.506837434     -0.033551047
8       -0.758386576      1.221457434     -2.021334047
8        1.438957424      0.729604434     -2.101798047
6        0.309740424      0.929742434     -2.619844047
6        0.217216424      0.769466434     -4.113386047
1       -0.555292576      1.437966434     -4.520825047
1        1.193255424      0.962596434     -4.581299047
1       -0.076946576     -0.271821566     -4.333344047
8       -1.059406576      3.557129434      0.147943953
6       -1.334973067      4.739031033      0.517917064
8       -1.775044523      4.886931662      1.698432686
6       -1.112039668      5.905342840     -0.382096352
1       -1.302966571      5.619071324     -1.427603384
1       -0.056174456      6.218750451     -0.300839630
1       -1.752922122      6.747382003     -0.081334605
8        2.866242424      2.648547434      0.036105953
46       1.889353424      0.840633434     -0.136611047
8        2.620836424      1.320121434      1.727186953
6        3.052796424      2.422259434      1.270018953
1        4.343423424      4.100938434      1.560198953
1        2.934158424      4.016787434      2.662846953
6        3.713912424      3.422368434      2.154660953
1        4.307839424      2.910293434      2.927146953
8        1.115863424     -1.004351566      0.131161953
6       -0.102766576     -1.289889566      0.263977953
8       -1.076564576     -0.493778566      0.227345953
6       -0.432111576     -2.746072566      0.453243953
1       -0.551470576     -3.207487566     -0.542685047
1        0.389926424     -3.258353566      0.974119953
1       -1.377729576     -2.856497566      1.003304953
8       -1.460414787      2.166047730      1.857494016
6       -2.148442821      2.600344628      2.830999030
8       -2.225324913      3.863569655      2.744360188
6       -2.270267682      1.749355926      4.047955731
1       -1.564977386      0.906140064      3.992801133
1       -2.095347607      2.350156166      4.952754017
1       -3.293777527      1.336700037      4.090629424
*
