!PBE0 def2-SV(p) opt d3 TightSCF SlowConv RIJCOSX defgrid2

%pal
nprocs 4
end

%scf
MaxIter 1500
end

%maxcore 3500

 

* xyz 0 1
6        0.000000000      0.188766076     -0.918608301
6        0.000000000      0.188766076      0.411549699
1        0.000000000      1.112107076     -1.491558301
1        0.000000000     -0.734574924     -1.491558301
1        0.000000000      1.112107076      0.984499699
1        0.000000000     -0.734574924      0.984499699
*
