!PBE0 def2-SV(p) opt d3 TightSCF SlowConv RIJCOSX defgrid2

%pal
nprocs 4
end

%scf
MaxIter 1500
end

%maxcore 3500

 

* xyz 0 1
8        0.000000000      0.000000010      0.002452392
1        0.000000000      0.766079024      0.594816800
1        0.000000000     -0.766079034      0.594816808
*
