!PBE0 def2-SV(p) opt d3 TightSCF SlowConv RIJCOSX defgrid2

%pal
nprocs 16
end

%scf
MaxIter 1500
end

%maxcore 3500

 

* xyz -2 1
46      -0.764296000      1.665673000      0.049423000
8       -0.547169000      1.541480000     -2.018009000
8        1.316848000      0.277888000     -2.167610000
6        0.303273000      0.879496000     -2.640264000
6        0.155876000      0.791953000     -4.142219000
1       -0.887573000      0.979870000     -4.434656000
1        0.798018000      1.564190000     -4.601082000
1        0.495423000     -0.190317000     -4.505413000
8       -0.241623000      3.595805000      0.028068000
6       -1.026060000      4.503120000      0.512021000
8       -2.181105000      4.374352000      0.873148000
6       -0.320354000      5.853284000      0.635490000
1        0.446418000      5.983225000     -0.145094000
1        0.181469000      5.898349000      1.619636000
1       -1.059969000      6.668610000      0.592445000
8        2.895345000      2.392693000     -0.398756000
46       1.902534000      0.590262000     -0.257878000
8        4.538205934      3.775590385     -0.074537575
6        3.580421292      3.099309251      0.402824286
1        2.247193883      2.925573176      2.071806141
1        3.850371029      2.150162502      2.242281313
6        3.322528415      3.047047714      1.869926197
1        3.727530110      3.938859071      2.370685467
8        1.015352000     -1.139315000      0.281554000
6       -0.247021000     -1.258815000      0.311035000
8       -1.101324000     -0.378540000      0.094110000
6       -0.768380000     -2.629802000      0.672137000
1       -1.596028000     -2.896774000     -0.003825000
1        0.028595000     -3.386474000      0.633003000
1       -1.183172000     -2.579319000      1.693571000
8       -0.952504000      1.825211000      2.016682000
6       -2.137064000      1.649134000      2.521250000
8       -3.097907000      1.140531000      1.978113000
6       -2.224318000      2.209387000      3.934335000
1       -2.339581000      3.304105000      3.843822000
1       -3.102263000      1.794711000      4.454117000
1       -1.302185000      2.011148000      4.504901000
8        3.973930522      0.039098892      0.519254986
6        5.181363723      0.183780271      0.155470200
8        5.483912792     -0.133702127     -1.032069663
6        6.220916706      0.616051980      1.132250005
1        5.803522685      1.338490926      1.850386574
1        6.518462783     -0.293160777      1.685845287
1        7.099380961      1.026894151      0.612997679
*
