!TPSSh def2-TZVP d3 TightSCF SlowConv RIJCOSX defgrid2

%pal
nprocs 4
end

%scf
MaxIter 1500
end

%maxcore 3500

 

* xyz 0 1
  O           0.00022945393406     -0.31300099561065     -0.53165302648926
  C          -1.12714279750530     -0.76227707252610      0.07958516999907
  O          -2.21060860168616     -0.28259429224135     -0.09602707607288
  C          -0.80193349509532     -1.91629277848566      0.97930931412647
  H          -0.33747088164425     -2.72879620345494      0.39569919685846
  H          -0.06870158135400     -1.60274631806362      1.74133143466650
  H          -1.71969982718559     -2.27584634386799      1.46388745359979
  C          -0.10046244432862      0.74418283549747     -1.39379501186392
  H          -1.11577961958336      1.13371131171588     -1.51202627486007
  C           0.97642010734584      1.22159272343404     -2.01191491942361
  H           1.96792442155445      0.78629382831538     -1.85036187396633
  H           0.87446090954824      2.06699611628755     -2.69719060557422
*
