!PBE0 def2-SV(p) opt d3 TightSCF SlowConv RIJCOSX defgrid2

%pal
nprocs 16
end

%scf
MaxIter 1500
end

%maxcore 3500

 

* xyz 0 1
46      -1.475210706      1.824296760     -0.229962289
8       -0.162388689      2.363505427     -1.660739664
8        1.992847000      1.725321294     -1.315166368
6        1.073434063      2.320419917     -1.924338275
6        1.481703185      3.077255885     -3.164492428
1        0.966049235      4.049161665     -3.199267233
1        2.572376254      3.208778247     -3.191840215
1        1.163490415      2.495704777     -4.046998778
8       -3.004201713      3.107223783     -0.723602254
6       -3.700659236      2.637988010      0.223596023
8       -3.166760932      1.710888134      0.916174555
6       -5.057233783      3.159310061      0.537827042
1       -5.511494814      3.602226304     -0.360867222
1       -4.965729032      3.945306181      1.308120561
1       -5.688967377      2.353865198      0.942277782
8        4.109941058      1.390965818     -0.767704663
46       2.376969937      0.741654713      0.105816679
8        4.127990219     -0.024888487      0.863269752
6        4.787082540      0.663681946      0.030270390
1        6.633952345      0.809894823     -1.027222982
1        6.645950065      1.485549106      0.625939561
6        6.273648832      0.654588239      0.001110820
1        6.655852670     -0.290928470      0.413539773
8        1.082897392     -0.244493971      1.295042709
6       -0.106998608     -0.177917500      1.717314597
8       -1.027987734      0.598205349      1.370954546
6       -0.461895052     -1.199291849      2.770077454
1       -0.577659307     -2.180220962      2.277476977
1        0.355977626     -1.285603975      3.501749258
1       -1.405507362     -0.928837641      3.264105901
*
