!TPSSh def2-TZVP d3 TightSCF SlowConv RIJCOSX defgrid2

%pal
nprocs 4
end

%scf
MaxIter 1500
end

%maxcore 3500

 

* xyz 0 1
  O          -0.29337834737891      0.03471851820976      0.24047516870125
  C           0.75293780261439     -0.78317840469775      0.45109594493049
  O           1.77714897841705     -0.69028719883864     -0.16966802191010
  C           0.46156459990035     -1.78385145482332      1.53073595076212
  H           0.21871271639251     -1.26155552193283      2.47129267410843
  H          -0.42021473257458     -2.38701473417976      1.25651203332911
  H           1.33389312976003     -2.43525782944194      1.67527504778182
  H          -0.02691464813084      0.65299033170450     -0.46543474370312
*
