!PBE0 def2-SV(p) freq d3 TightSCF SlowConv RIJCOSX defgrid2

%pal
nprocs 4
nprocs_group 2
end

%scf
MaxIter 1500
end

%maxcore 3500

 

* xyz 0 1
  C           0.00000004423337      0.18876599610817     -0.91953307112615
  C          -0.00000000137809      0.18876603703724      0.41247447844015
  H          -0.00000002932142      1.12197205247268     -1.49640319634758
  H          -0.00000000433371     -0.74443986558511     -1.49640358730746
  H           0.00000000789379      1.12197202144349      0.98934463796064
  H          -0.00000001709394     -0.74443978547648      0.98934493238040
*
